21
109
3
26
54
131
69
31
74
37
26
167
1
23
3
110
72
128
113
172
87
68
37
151
84
60
68
193
3
46
102
25
162
25
98
1
133
36
89
98
177
27
174
167
148
179
47
123
155
172
110
131
153
186
142
44
30
137
67
105
16
58
66
7
48
88
171
62
7
68
123
50
139
97
162
147
167
200
106
181
53
192
182
118
31
46
154
63
91
120
159
90
185
173
102
73
69
97
138
22
